linearProgramming/Aula-GLPK+planilhas/Minas/minas.lp
\* Problem: minas *\

Maximize
 energia: + 24000 x(MorroVelho) + 36000 x(Monjolo) + 28000 x(Jabuticaba)

Subject To
 restricaoambiental(Enxofre): + 1100 x(MorroVelho) + 3500 x(Monjolo)
 + 1300 x(Jabuticaba) <= 2500
 restricaoambiental(Poeira): + 1.7 x(MorroVelho) + 3.2 x(Monjolo)
 + 2.4 x(Jabuticaba) <= 2.8
 proporcao: + x(MorroVelho) + x(Monjolo) + x(Jabuticaba) = 1

End
